(set-logic QF_S)
(declare-fun _var_0xINPUT_102056_() String)
(declare-fun __woorpje_diseq_pref0_() String)
(declare-fun __woorpje_diseq_suf_l0_() String)
(declare-fun __woorpje_diseq_suf_r0_() String)
(assert (=(str.++  "UaP4xhaBAn" "")(str.++ _var_0xINPUT_102056_  "")) )
(check-sat)
